c turning on binary mode checking
c parsing input formula with 259840 variables and 1039934 clauses
c finished parsing, read 3025806 bytes from proof file
c detected empty clause; start verification via backward checking
c 2994 of 1039934 clauses in core                            
c 909 of 120991 lemmas in core using 12003 resolution steps
c 0 RAT lemmas in core; 30 redundant literals in core lemmas
s VERIFIED
c verification time: 1.392 seconds
